p cnf 258 1240
-1 -186 0
-1 -187 0
-1 -188 0
-2 186 0
-2 -187 0
-2 -188 0
-3 -186 0
-3 187 0
-3 -188 0
-4 186 0
-4 187 0
-4 -188 0
-5 -186 0
-5 -187 0
-5 188 0
1 2 3 4 5 0
-1 31 0
-1 6 0
-2 32 0
-2 7 0
-3 33 0
-3 8 0
-4 34 0
-4 9 0
-5 35 0
-5 10 0
-6 -189 0
-6 -190 0
-6 -191 0
-7 189 0
-7 -190 0
-7 -191 0
-8 -189 0
-8 190 0
-8 -191 0
-9 189 0
-9 190 0
-9 -191 0
-10 -189 0
-10 -190 0
-10 191 0
6 7 8 9 10 0
-6 1 11 0
-6 1 36 0
-6 11 36 0
-7 2 12 0
-7 2 37 0
-7 12 37 0
-8 3 13 0
-8 3 38 0
-8 13 38 0
-9 4 14 0
-9 4 39 0
-9 14 39 0
-10 5 15 0
-10 5 40 0
-10 15 40 0
-6 -1 -11 -36 0
-7 -2 -12 -37 0
-8 -3 -13 -38 0
-9 -4 -14 -39 0
-10 -5 -15 -40 0
-11 -192 0
-11 -193 0
-11 -194 0
-12 192 0
-12 -193 0
-12 -194 0
-13 -192 0
-13 193 0
-13 -194 0
-14 192 0
-14 193 0
-14 -194 0
-15 -192 0
-15 -193 0
-15 194 0
11 12 13 14 15 0
-11 6 16 0
-11 6 41 0
-11 16 41 0
-12 7 17 0
-12 7 42 0
-12 17 42 0
-13 8 18 0
-13 8 43 0
-13 18 43 0
-14 9 19 0
-14 9 44 0
-14 19 44 0
-15 10 20 0
-15 10 45 0
-15 20 45 0
-11 -6 -16 -41 0
-12 -7 -17 -42 0
-13 -8 -18 -43 0
-14 -9 -19 -44 0
-15 -10 -20 -45 0
-16 -195 0
-16 -196 0
-16 -197 0
-17 195 0
-17 -196 0
-17 -197 0
-18 -195 0
-18 196 0
-18 -197 0
-19 195 0
-19 196 0
-19 -197 0
-20 -195 0
-20 -196 0
-20 197 0
16 17 18 19 20 0
-16 11 21 0
-16 11 46 0
-16 21 46 0
-17 12 22 0
-17 12 47 0
-17 22 47 0
-18 13 23 0
-18 13 48 0
-18 23 48 0
-19 14 24 0
-19 14 49 0
-19 24 49 0
-20 15 25 0
-20 15 50 0
-20 25 50 0
-16 -11 -21 -46 0
-17 -12 -22 -47 0
-18 -13 -23 -48 0
-19 -14 -24 -49 0
-20 -15 -25 -50 0
-21 -198 0
-21 -199 0
-21 -200 0
-22 198 0
-22 -199 0
-22 -200 0
-23 -198 0
-23 199 0
-23 -200 0
-24 198 0
-24 199 0
-24 -200 0
-25 -198 0
-25 -199 0
-25 200 0
21 22 23 24 25 0
-21 16 26 0
-21 16 51 0
-21 26 51 0
-22 17 27 0
-22 17 52 0
-22 27 52 0
-23 18 28 0
-23 18 53 0
-23 28 53 0
-24 19 29 0
-24 19 54 0
-24 29 54 0
-25 20 30 0
-25 20 55 0
-25 30 55 0
-21 -16 -26 -51 0
-22 -17 -27 -52 0
-23 -18 -28 -53 0
-24 -19 -29 -54 0
-25 -20 -30 -55 0
-26 -201 0
-26 -202 0
-26 -203 0
-27 201 0
-27 -202 0
-27 -203 0
-28 -201 0
-28 202 0
-28 -203 0
-29 201 0
-29 202 0
-29 -203 0
-30 -201 0
-30 -202 0
-30 203 0
26 27 28 29 30 0
-26 56 0
-26 21 0
-27 57 0
-27 22 0
-28 58 0
-28 23 0
-29 59 0
-29 24 0
-30 60 0
-30 25 0
-31 -204 0
-31 -205 0
-31 -206 0
-32 204 0
-32 -205 0
-32 -206 0
-33 -204 0
-33 205 0
-33 -206 0
-34 204 0
-34 205 0
-34 -206 0
-35 -204 0
-35 -205 0
-35 206 0
31 32 33 34 35 0
-31 61 36 0
-31 61 1 0
-31 36 1 0
-32 62 37 0
-32 62 2 0
-32 37 2 0
-33 63 38 0
-33 63 3 0
-33 38 3 0
-34 64 39 0
-34 64 4 0
-34 39 4 0
-35 65 40 0
-35 65 5 0
-35 40 5 0
-31 -61 -36 -1 0
-32 -62 -37 -2 0
-33 -63 -38 -3 0
-34 -64 -39 -4 0
-35 -65 -40 -5 0
36 0
-37 0
-38 0
-39 0
-40 0
66 41 6 31 0
-66 -41 0
-66 -6 0
-66 -31 0
-41 -6 0
-41 -31 0
-6 -31 0
42 0
-41 0
-43 0
-44 0
-45 0
72 47 12 37 0
-72 -47 0
-72 -12 0
-72 -37 0
-47 -12 0
-47 -37 0
-12 -37 0
-46 -213 0
-46 -214 0
-46 -215 0
-47 213 0
-47 -214 0
-47 -215 0
-48 -213 0
-48 214 0
-48 -215 0
-49 213 0
-49 214 0
-49 -215 0
-50 -213 0
-50 -214 0
-50 215 0
46 47 48 49 50 0
-46 76 51 16 0
-46 76 51 41 0
-46 76 16 41 0
-46 51 16 41 0
-47 77 52 17 0
-47 77 52 42 0
-47 77 17 42 0
-47 52 17 42 0
-48 78 53 18 0
-48 78 53 43 0
-48 78 18 43 0
-48 53 18 43 0
-49 79 54 19 0
-49 79 54 44 0
-49 79 19 44 0
-49 54 19 44 0
-50 80 55 20 0
-50 80 55 45 0
-50 80 20 45 0
-50 55 20 45 0
-46 -76 -51 -16 0
-46 -76 -51 -41 0
-46 -76 -16 -41 0
-46 -51 -16 -41 0
-47 -77 -52 -17 0
-47 -77 -52 -42 0
-47 -77 -17 -42 0
-47 -52 -17 -42 0
-48 -78 -53 -18 0
-48 -78 -53 -43 0
-48 -78 -18 -43 0
-48 -53 -18 -43 0
-49 -79 -54 -19 0
-49 -79 -54 -44 0
-49 -79 -19 -44 0
-49 -54 -19 -44 0
-50 -80 -55 -20 0
-50 -80 -55 -45 0
-50 -80 -20 -45 0
-50 -55 -20 -45 0
-51 -216 0
-51 -217 0
-51 -218 0
-52 216 0
-52 -217 0
-52 -218 0
-53 -216 0
-53 217 0
-53 -218 0
-54 216 0
-54 217 0
-54 -218 0
-55 -216 0
-55 -217 0
-55 218 0
51 52 53 54 55 0
-51 81 56 21 0
-51 81 56 46 0
-51 81 21 46 0
-51 56 21 46 0
-52 82 57 22 0
-52 82 57 47 0
-52 82 22 47 0
-52 57 22 47 0
-53 83 58 23 0
-53 83 58 48 0
-53 83 23 48 0
-53 58 23 48 0
-54 84 59 24 0
-54 84 59 49 0
-54 84 24 49 0
-54 59 24 49 0
-55 85 60 25 0
-55 85 60 50 0
-55 85 25 50 0
-55 60 25 50 0
-51 -81 -56 -21 0
-51 -81 -56 -46 0
-51 -81 -21 -46 0
-51 -56 -21 -46 0
-52 -82 -57 -22 0
-52 -82 -57 -47 0
-52 -82 -22 -47 0
-52 -57 -22 -47 0
-53 -83 -58 -23 0
-53 -83 -58 -48 0
-53 -83 -23 -48 0
-53 -58 -23 -48 0
-54 -84 -59 -24 0
-54 -84 -59 -49 0
-54 -84 -24 -49 0
-54 -59 -24 -49 0
-55 -85 -60 -25 0
-55 -85 -60 -50 0
-55 -85 -25 -50 0
-55 -60 -25 -50 0
-56 -219 0
-56 -220 0
-56 -221 0
-57 219 0
-57 -220 0
-57 -221 0
-58 -219 0
-58 220 0
-58 -221 0
-59 219 0
-59 220 0
-59 -221 0
-60 -219 0
-60 -220 0
-60 221 0
56 57 58 59 60 0
-56 86 51 0
-56 86 26 0
-56 51 26 0
-57 87 52 0
-57 87 27 0
-57 52 27 0
-58 88 53 0
-58 88 28 0
-58 53 28 0
-59 89 54 0
-59 89 29 0
-59 54 29 0
-60 90 55 0
-60 90 30 0
-60 55 30 0
-56 -86 -51 -26 0
-57 -87 -52 -27 0
-58 -88 -53 -28 0
-59 -89 -54 -29 0
-60 -90 -55 -30 0
-61 -222 0
-61 -223 0
-61 -224 0
-62 222 0
-62 -223 0
-62 -224 0
-63 -222 0
-63 223 0
-63 -224 0
-64 222 0
-64 223 0
-64 -224 0
-65 -222 0
-65 -223 0
-65 224 0
61 62 63 64 65 0
-61 91 66 0
-61 91 31 0
-61 66 31 0
-62 92 67 0
-62 92 32 0
-62 67 32 0
-63 93 68 0
-63 93 33 0
-63 68 33 0
-64 94 69 0
-64 94 34 0
-64 69 34 0
-65 95 70 0
-65 95 35 0
-65 70 35 0
-61 -91 -66 -31 0
-62 -92 -67 -32 0
-63 -93 -68 -33 0
-64 -94 -69 -34 0
-65 -95 -70 -35 0
-66 -225 0
-66 -226 0
-66 -227 0
-67 225 0
-67 -226 0
-67 -227 0
-68 -225 0
-68 226 0
-68 -227 0
-69 225 0
-69 226 0
-69 -227 0
-70 -225 0
-70 -226 0
-70 227 0
66 67 68 69 70 0
-66 96 71 36 0
-66 96 71 61 0
-66 96 36 61 0
-66 71 36 61 0
-67 97 72 37 0
-67 97 72 62 0
-67 97 37 62 0
-67 72 37 62 0
-68 98 73 38 0
-68 98 73 63 0
-68 98 38 63 0
-68 73 38 63 0
-69 99 74 39 0
-69 99 74 64 0
-69 99 39 64 0
-69 74 39 64 0
-70 100 75 40 0
-70 100 75 65 0
-70 100 40 65 0
-70 75 40 65 0
-66 -96 -71 -36 0
-66 -96 -71 -61 0
-66 -96 -36 -61 0
-66 -71 -36 -61 0
-67 -97 -72 -37 0
-67 -97 -72 -62 0
-67 -97 -37 -62 0
-67 -72 -37 -62 0
-68 -98 -73 -38 0
-68 -98 -73 -63 0
-68 -98 -38 -63 0
-68 -73 -38 -63 0
-69 -99 -74 -39 0
-69 -99 -74 -64 0
-69 -99 -39 -64 0
-69 -74 -39 -64 0
-70 -100 -75 -40 0
-70 -100 -75 -65 0
-70 -100 -40 -65 0
-70 -75 -40 -65 0
-71 -228 0
-71 -229 0
-71 -230 0
-72 228 0
-72 -229 0
-72 -230 0
-73 -228 0
-73 229 0
-73 -230 0
-74 228 0
-74 229 0
-74 -230 0
-75 -228 0
-75 -229 0
-75 230 0
71 72 73 74 75 0
-71 101 76 41 0
-71 101 76 66 0
-71 101 41 66 0
-71 76 41 66 0
-72 102 77 42 0
-72 102 77 67 0
-72 102 42 67 0
-72 77 42 67 0
-73 103 78 43 0
-73 103 78 68 0
-73 103 43 68 0
-73 78 43 68 0
-74 104 79 44 0
-74 104 79 69 0
-74 104 44 69 0
-74 79 44 69 0
-75 105 80 45 0
-75 105 80 70 0
-75 105 45 70 0
-75 80 45 70 0
-71 -101 -76 -41 0
-71 -101 -76 -66 0
-71 -101 -41 -66 0
-71 -76 -41 -66 0
-72 -102 -77 -42 0
-72 -102 -77 -67 0
-72 -102 -42 -67 0
-72 -77 -42 -67 0
-73 -103 -78 -43 0
-73 -103 -78 -68 0
-73 -103 -43 -68 0
-73 -78 -43 -68 0
-74 -104 -79 -44 0
-74 -104 -79 -69 0
-74 -104 -44 -69 0
-74 -79 -44 -69 0
-75 -105 -80 -45 0
-75 -105 -80 -70 0
-75 -105 -45 -70 0
-75 -80 -45 -70 0
76 0
-77 0
-78 0
-79 0
-80 0
106 81 46 71 0
-106 -81 0
-106 -46 0
-106 -71 0
-81 -46 0
-81 -71 0
-46 -71 0
-81 -234 0
-81 -235 0
-81 -236 0
-82 234 0
-82 -235 0
-82 -236 0
-83 -234 0
-83 235 0
-83 -236 0
-84 234 0
-84 235 0
-84 -236 0
-85 -234 0
-85 -235 0
-85 236 0
81 82 83 84 85 0
-81 111 86 51 0
-81 111 86 76 0
-81 111 51 76 0
-81 86 51 76 0
-82 112 87 52 0
-82 112 87 77 0
-82 112 52 77 0
-82 87 52 77 0
-83 113 88 53 0
-83 113 88 78 0
-83 113 53 78 0
-83 88 53 78 0
-84 114 89 54 0
-84 114 89 79 0
-84 114 54 79 0
-84 89 54 79 0
-85 115 90 55 0
-85 115 90 80 0
-85 115 55 80 0
-85 90 55 80 0
-81 -111 -86 -51 0
-81 -111 -86 -76 0
-81 -111 -51 -76 0
-81 -86 -51 -76 0
-82 -112 -87 -52 0
-82 -112 -87 -77 0
-82 -112 -52 -77 0
-82 -87 -52 -77 0
-83 -113 -88 -53 0
-83 -113 -88 -78 0
-83 -113 -53 -78 0
-83 -88 -53 -78 0
-84 -114 -89 -54 0
-84 -114 -89 -79 0
-84 -114 -54 -79 0
-84 -89 -54 -79 0
-85 -115 -90 -55 0
-85 -115 -90 -80 0
-85 -115 -55 -80 0
-85 -90 -55 -80 0
-86 -237 0
-86 -238 0
-86 -239 0
-87 237 0
-87 -238 0
-87 -239 0
-88 -237 0
-88 238 0
-88 -239 0
-89 237 0
-89 238 0
-89 -239 0
-90 -237 0
-90 -238 0
-90 239 0
86 87 88 89 90 0
-86 116 81 0
-86 116 56 0
-86 81 56 0
-87 117 82 0
-87 117 57 0
-87 82 57 0
-88 118 83 0
-88 118 58 0
-88 83 58 0
-89 119 84 0
-89 119 59 0
-89 84 59 0
-90 120 85 0
-90 120 60 0
-90 85 60 0
-86 -116 -81 -56 0
-87 -117 -82 -57 0
-88 -118 -83 -58 0
-89 -119 -84 -59 0
-90 -120 -85 -60 0
94 0
-91 0
-92 0
-93 0
-95 0
124 99 64 0
-124 -99 0
-124 -64 0
-99 -64 0
-96 -243 0
-96 -244 0
-96 -245 0
-97 243 0
-97 -244 0
-97 -245 0
-98 -243 0
-98 244 0
-98 -245 0
-99 243 0
-99 244 0
-99 -245 0
-100 -243 0
-100 -244 0
-100 245 0
96 97 98 99 100 0
-96 126 101 66 0
-96 126 101 91 0
-96 126 66 91 0
-96 101 66 91 0
-97 127 102 67 0
-97 127 102 92 0
-97 127 67 92 0
-97 102 67 92 0
-98 128 103 68 0
-98 128 103 93 0
-98 128 68 93 0
-98 103 68 93 0
-99 129 104 69 0
-99 129 104 94 0
-99 129 69 94 0
-99 104 69 94 0
-100 130 105 70 0
-100 130 105 95 0
-100 130 70 95 0
-100 105 70 95 0
-96 -126 -101 -66 0
-96 -126 -101 -91 0
-96 -126 -66 -91 0
-96 -101 -66 -91 0
-97 -127 -102 -67 0
-97 -127 -102 -92 0
-97 -127 -67 -92 0
-97 -102 -67 -92 0
-98 -128 -103 -68 0
-98 -128 -103 -93 0
-98 -128 -68 -93 0
-98 -103 -68 -93 0
-99 -129 -104 -69 0
-99 -129 -104 -94 0
-99 -129 -69 -94 0
-99 -104 -69 -94 0
-100 -130 -105 -70 0
-100 -130 -105 -95 0
-100 -130 -70 -95 0
-100 -105 -70 -95 0
-101 -246 0
-101 -247 0
-101 -248 0
-102 246 0
-102 -247 0
-102 -248 0
-103 -246 0
-103 247 0
-103 -248 0
-104 246 0
-104 247 0
-104 -248 0
-105 -246 0
-105 -247 0
-105 248 0
101 102 103 104 105 0
-101 131 106 71 0
-101 131 106 96 0
-101 131 71 96 0
-101 106 71 96 0
-102 132 107 72 0
-102 132 107 97 0
-102 132 72 97 0
-102 107 72 97 0
-103 133 108 73 0
-103 133 108 98 0
-103 133 73 98 0
-103 108 73 98 0
-104 134 109 74 0
-104 134 109 99 0
-104 134 74 99 0
-104 109 74 99 0
-105 135 110 75 0
-105 135 110 100 0
-105 135 75 100 0
-105 110 75 100 0
-101 -131 -106 -71 0
-101 -131 -106 -96 0
-101 -131 -71 -96 0
-101 -106 -71 -96 0
-102 -132 -107 -72 0
-102 -132 -107 -97 0
-102 -132 -72 -97 0
-102 -107 -72 -97 0
-103 -133 -108 -73 0
-103 -133 -108 -98 0
-103 -133 -73 -98 0
-103 -108 -73 -98 0
-104 -134 -109 -74 0
-104 -134 -109 -99 0
-104 -134 -74 -99 0
-104 -109 -74 -99 0
-105 -135 -110 -75 0
-105 -135 -110 -100 0
-105 -135 -75 -100 0
-105 -110 -75 -100 0
-106 -249 0
-106 -250 0
-106 -251 0
-107 249 0
-107 -250 0
-107 -251 0
-108 -249 0
-108 250 0
-108 -251 0
-109 249 0
-109 250 0
-109 -251 0
-110 -249 0
-110 -250 0
-110 251 0
106 107 108 109 110 0
-106 136 111 76 0
-106 136 111 101 0
-106 136 76 101 0
-106 111 76 101 0
-107 137 112 77 0
-107 137 112 102 0
-107 137 77 102 0
-107 112 77 102 0
-108 138 113 78 0
-108 138 113 103 0
-108 138 78 103 0
-108 113 78 103 0
-109 139 114 79 0
-109 139 114 104 0
-109 139 79 104 0
-109 114 79 104 0
-110 140 115 80 0
-110 140 115 105 0
-110 140 80 105 0
-110 115 80 105 0
-106 -136 -111 -76 0
-106 -136 -111 -101 0
-106 -136 -76 -101 0
-106 -111 -76 -101 0
-107 -137 -112 -77 0
-107 -137 -112 -102 0
-107 -137 -77 -102 0
-107 -112 -77 -102 0
-108 -138 -113 -78 0
-108 -138 -113 -103 0
-108 -138 -78 -103 0
-108 -113 -78 -103 0
-109 -139 -114 -79 0
-109 -139 -114 -104 0
-109 -139 -79 -104 0
-109 -114 -79 -104 0
-110 -140 -115 -80 0
-110 -140 -115 -105 0
-110 -140 -80 -105 0
-110 -115 -80 -105 0
-111 -252 0
-111 -253 0
-111 -254 0
-112 252 0
-112 -253 0
-112 -254 0
-113 -252 0
-113 253 0
-113 -254 0
-114 252 0
-114 253 0
-114 -254 0
-115 -252 0
-115 -253 0
-115 254 0
111 112 113 114 115 0
-111 141 116 81 0
-111 141 116 106 0
-111 141 81 106 0
-111 116 81 106 0
-112 142 117 82 0
-112 142 117 107 0
-112 142 82 107 0
-112 117 82 107 0
-113 143 118 83 0
-113 143 118 108 0
-113 143 83 108 0
-113 118 83 108 0
-114 144 119 84 0
-114 144 119 109 0
-114 144 84 109 0
-114 119 84 109 0
-115 145 120 85 0
-115 145 120 110 0
-115 145 85 110 0
-115 120 85 110 0
-111 -141 -116 -81 0
-111 -141 -116 -106 0
-111 -141 -81 -106 0
-111 -116 -81 -106 0
-112 -142 -117 -82 0
-112 -142 -117 -107 0
-112 -142 -82 -107 0
-112 -117 -82 -107 0
-113 -143 -118 -83 0
-113 -143 -118 -108 0
-113 -143 -83 -108 0
-113 -118 -83 -108 0
-114 -144 -119 -84 0
-114 -144 -119 -109 0
-114 -144 -84 -109 0
-114 -119 -84 -109 0
-115 -145 -120 -85 0
-115 -145 -120 -110 0
-115 -145 -85 -110 0
-115 -120 -85 -110 0
-116 -255 0
-116 -256 0
-116 -257 0
-117 255 0
-117 -256 0
-117 -257 0
-118 -255 0
-118 256 0
-118 -257 0
-119 255 0
-119 256 0
-119 -257 0
-120 -255 0
-120 -256 0
-120 257 0
116 117 118 119 120 0
-116 146 111 0
-116 146 86 0
-116 111 86 0
-117 147 112 0
-117 147 87 0
-117 112 87 0
-118 148 113 0
-118 148 88 0
-118 113 88 0
-119 149 114 0
-119 149 89 0
-119 114 89 0
-120 150 115 0
-120 150 90 0
-120 115 90 0
-116 -146 -111 -86 0
-117 -147 -112 -87 0
-118 -148 -113 -88 0
-119 -149 -114 -89 0
-120 -150 -115 -90 0
125 0
-121 0
-122 0
-123 0
-124 0
155 130 95 0
-155 -130 0
-155 -95 0
-130 -95 0
-126 -261 0
-126 -262 0
-126 -263 0
-127 261 0
-127 -262 0
-127 -263 0
-128 -261 0
-128 262 0
-128 -263 0
-129 261 0
-129 262 0
-129 -263 0
-130 -261 0
-130 -262 0
-130 263 0
126 127 128 129 130 0
-126 156 131 96 0
-126 156 131 121 0
-126 156 96 121 0
-126 131 96 121 0
-127 157 132 97 0
-127 157 132 122 0
-127 157 97 122 0
-127 132 97 122 0
-128 158 133 98 0
-128 158 133 123 0
-128 158 98 123 0
-128 133 98 123 0
-129 159 134 99 0
-129 159 134 124 0
-129 159 99 124 0
-129 134 99 124 0
-130 160 135 100 0
-130 160 135 125 0
-130 160 100 125 0
-130 135 100 125 0
-126 -156 -131 -96 0
-126 -156 -131 -121 0
-126 -156 -96 -121 0
-126 -131 -96 -121 0
-127 -157 -132 -97 0
-127 -157 -132 -122 0
-127 -157 -97 -122 0
-127 -132 -97 -122 0
-128 -158 -133 -98 0
-128 -158 -133 -123 0
-128 -158 -98 -123 0
-128 -133 -98 -123 0
-129 -159 -134 -99 0
-129 -159 -134 -124 0
-129 -159 -99 -124 0
-129 -134 -99 -124 0
-130 -160 -135 -100 0
-130 -160 -135 -125 0
-130 -160 -100 -125 0
-130 -135 -100 -125 0
133 0
-131 0
-132 0
-134 0
-135 0
163 138 103 128 0
-163 -138 0
-163 -103 0
-163 -128 0
-138 -103 0
-138 -128 0
-103 -128 0
-136 -267 0
-136 -268 0
-136 -269 0
-137 267 0
-137 -268 0
-137 -269 0
-138 -267 0
-138 268 0
-138 -269 0
-139 267 0
-139 268 0
-139 -269 0
-140 -267 0
-140 -268 0
-140 269 0
136 137 138 139 140 0
-136 166 141 106 0
-136 166 141 131 0
-136 166 106 131 0
-136 141 106 131 0
-137 167 142 107 0
-137 167 142 132 0
-137 167 107 132 0
-137 142 107 132 0
-138 168 143 108 0
-138 168 143 133 0
-138 168 108 133 0
-138 143 108 133 0
-139 169 144 109 0
-139 169 144 134 0
-139 169 109 134 0
-139 144 109 134 0
-140 170 145 110 0
-140 170 145 135 0
-140 170 110 135 0
-140 145 110 135 0
-136 -166 -141 -106 0
-136 -166 -141 -131 0
-136 -166 -106 -131 0
-136 -141 -106 -131 0
-137 -167 -142 -107 0
-137 -167 -142 -132 0
-137 -167 -107 -132 0
-137 -142 -107 -132 0
-138 -168 -143 -108 0
-138 -168 -143 -133 0
-138 -168 -108 -133 0
-138 -143 -108 -133 0
-139 -169 -144 -109 0
-139 -169 -144 -134 0
-139 -169 -109 -134 0
-139 -144 -109 -134 0
-140 -170 -145 -110 0
-140 -170 -145 -135 0
-140 -170 -110 -135 0
-140 -145 -110 -135 0
142 0
-141 0
-143 0
-144 0
-145 0
172 147 112 137 0
-172 -147 0
-172 -112 0
-172 -137 0
-147 -112 0
-147 -137 0
-112 -137 0
-146 -273 0
-146 -274 0
-146 -275 0
-147 273 0
-147 -274 0
-147 -275 0
-148 -273 0
-148 274 0
-148 -275 0
-149 273 0
-149 274 0
-149 -275 0
-150 -273 0
-150 -274 0
-150 275 0
146 147 148 149 150 0
-146 176 141 0
-146 176 116 0
-146 141 116 0
-147 177 142 0
-147 177 117 0
-147 142 117 0
-148 178 143 0
-148 178 118 0
-148 143 118 0
-149 179 144 0
-149 179 119 0
-149 144 119 0
-150 180 145 0
-150 180 120 0
-150 145 120 0
-146 -176 -141 -116 0
-147 -177 -142 -117 0
-148 -178 -143 -118 0
-149 -179 -144 -119 0
-150 -180 -145 -120 0
153 0
-151 0
-152 0
-154 0
-155 0
123 158 0
-123 -158 0
-156 -279 0
-156 -280 0
-156 -281 0
-157 279 0
-157 -280 0
-157 -281 0
-158 -279 0
-158 280 0
-158 -281 0
-159 279 0
-159 280 0
-159 -281 0
-160 -279 0
-160 -280 0
-160 281 0
156 157 158 159 160 0
-156 126 161 0
-156 126 151 0
-156 161 151 0
-157 127 162 0
-157 127 152 0
-157 162 152 0
-158 128 163 0
-158 128 153 0
-158 163 153 0
-159 129 164 0
-159 129 154 0
-159 164 154 0
-160 130 165 0
-160 130 155 0
-160 165 155 0
-156 -126 -161 -151 0
-157 -127 -162 -152 0
-158 -128 -163 -153 0
-159 -129 -164 -154 0
-160 -130 -165 -155 0
-161 -282 0
-161 -283 0
-161 -284 0
-162 282 0
-162 -283 0
-162 -284 0
-163 -282 0
-163 283 0
-163 -284 0
-164 282 0
-164 283 0
-164 -284 0
-165 -282 0
-165 -283 0
-165 284 0
161 162 163 164 165 0
-161 131 166 0
-161 131 156 0
-161 166 156 0
-162 132 167 0
-162 132 157 0
-162 167 157 0
-163 133 168 0
-163 133 158 0
-163 168 158 0
-164 134 169 0
-164 134 159 0
-164 169 159 0
-165 135 170 0
-165 135 160 0
-165 170 160 0
-161 -131 -166 -156 0
-162 -132 -167 -157 0
-163 -133 -168 -158 0
-164 -134 -169 -159 0
-165 -135 -170 -160 0
170 0
-166 0
-167 0
-168 0
-169 0
140 175 165 0
-140 -175 0
-140 -165 0
-175 -165 0
174 0
-171 0
-172 0
-173 0
-175 0
144 179 169 0
-144 -179 0
-144 -169 0
-179 -169 0
-176 -291 0
-176 -292 0
-176 -293 0
-177 291 0
-177 -292 0
-177 -293 0
-178 -291 0
-178 292 0
-178 -293 0
-179 291 0
-179 292 0
-179 -293 0
-180 -291 0
-180 -292 0
-180 293 0
176 177 178 179 180 0
-176 146 0
-176 171 0
-177 147 0
-177 172 0
-178 148 0
-178 173 0
-179 149 0
-179 174 0
-180 150 0
-180 175 0
11 71 101 161 0
62 67 72 82 87 0
97 102 107 112 117 0
17 47 107 137 0
8 68 98 128 158 0
129 139 149 0
9 69 99 129 159 0
14 74 104 164 0
19 49 109 139 0
10 70 100 130 160 0
15 75 105 165 0